c Random 6-CNF over 30 variables and 180 clauses
c Generated with `cnfgen`
c (C) 2012-2016 Massimo Lauria <lauria.massimo@gmail.com>
c https://massimolauria.github.io/cnfgen
c
c COMMAND LINE: cnfgen --output tmp-6-30-180.dimacs --output-format dimacs randkcnf 6 30 180
c
c sdimacs generated by gen-sdimacs
c
p cnf 30 180
e 16 17 18 19 20 21 22 23 24 25 26 27 28 29 30 0
r 0.37 1 2 3 4 5 6 7 8 9 10 11 12 13 14 15 0
6 10 -16 -17 -19 20 0
3 -8 -11 15 28 -29 0
-6 13 -18 -19 -20 23 0
5 -12 -19 -20 -22 27 0
1 -6 11 18 -23 26 0
-2 6 -18 19 -21 26 0
-1 4 -16 17 -24 -30 0
-9 -14 16 18 -23 30 0
-2 -8 -9 15 18 26 0
-3 -8 -11 -15 16 17 0
7 -8 -12 25 -29 30 0
-4 8 15 18 21 22 0
-3 12 -15 19 -22 -24 0
2 -14 18 27 29 -30 0
1 7 11 -12 -13 16 0
3 -9 -21 -22 -24 27 0
-4 -5 8 13 22 -28 0
2 -6 12 14 -17 -18 0
-5 -13 -16 -18 -24 -29 0
1 -6 -8 -19 27 -29 0
-2 -3 -6 7 11 -26 0
7 11 -12 -15 21 29 0
-8 18 19 21 23 -24 0
-3 10 -11 -12 -18 24 0
4 -9 -11 -14 -25 -27 0
14 15 -17 23 24 30 0
4 19 -22 -23 -25 30 0
-7 -10 -11 -23 25 -28 0
-5 8 11 12 -18 30 0
-1 -8 -9 -10 -16 -26 0
6 11 -14 -17 -22 -23 0
-2 7 9 22 -26 27 0
-3 -13 17 -18 23 28 0
2 3 -7 -11 -19 26 0
2 11 12 -17 21 -30 0
1 7 -15 18 -19 24 0
-2 9 -13 -18 -20 -30 0
-11 18 -20 -24 -26 -27 0
2 3 7 12 20 -23 0
-15 -16 -19 25 -26 -29 0
7 19 -20 -24 26 -28 0
1 -12 -14 15 23 25 0
1 4 13 16 -26 -29 0
-9 -19 25 -26 28 30 0
11 -12 -14 -15 20 -22 0
7 -13 17 18 29 -30 0
-3 14 -18 20 -22 -28 0
-2 -4 -9 -18 -29 -30 0
4 10 12 -19 21 -23 0
1 2 -3 -6 -27 -30 0
5 -6 -7 -13 -25 30 0
-3 -9 14 -17 -20 22 0
3 -6 11 14 -18 23 0
6 -8 -9 -12 17 20 0
-2 6 -7 -13 -22 25 0
-3 6 7 -9 -22 -28 0
4 -8 -10 -16 20 -28 0
2 18 -21 -22 -25 -27 0
3 7 -10 -12 -19 -29 0
1 4 -5 -14 -21 24 0
-1 -4 5 11 -23 24 0
-5 -7 14 -16 27 -30 0
1 -2 8 -16 25 -28 0
-1 6 -7 8 10 11 0
8 -9 10 19 26 -29 0
-1 2 4 14 22 -26 0
-2 -8 -11 13 -20 -26 0
3 -8 -12 -14 -16 18 0
1 6 12 14 18 -24 0
-6 7 -12 -16 19 -30 0
8 -10 18 -19 -23 -30 0
-10 15 -21 25 27 -29 0
3 5 -11 -13 18 23 0
1 2 -12 -14 22 24 0
4 -13 -17 -20 -27 -29 0
-2 7 8 -17 21 -23 0
-5 7 -8 13 -20 21 0
-7 -9 14 16 -25 -26 0
-4 5 -6 -8 20 30 0
-10 -14 16 19 -25 -26 0
8 -15 18 19 -29 -30 0
6 -15 21 -22 -23 -27 0
11 12 -18 -21 -23 26 0
2 -4 -11 12 25 -29 0
-3 6 -7 -10 -16 22 0
-4 -14 -19 21 -24 30 0
-3 -5 -12 18 20 21 0
3 4 6 -11 17 21 0
6 8 -11 13 19 28 0
1 3 4 -17 -22 27 0
-1 8 -10 13 -19 -21 0
2 14 -16 -20 21 27 0
4 10 -16 -22 -28 30 0
-1 -6 -7 -9 -11 12 0
1 2 -5 -18 -19 23 0
-14 18 21 27 29 30 0
-2 -4 11 20 21 -24 0
4 5 -7 -10 13 18 0
2 3 11 15 22 25 0
-3 13 15 16 21 28 0
-2 -8 -12 -14 -20 27 0
3 -7 -10 18 -22 29 0
1 6 10 13 -14 -28 0
-2 3 5 10 -11 13 0
-2 -3 -6 8 -11 20 0
-13 -16 19 21 26 30 0
-6 -8 13 15 27 -30 0
-4 -8 11 19 24 26 0
-2 -6 -9 14 28 -30 0
3 -8 12 -19 -24 -25 0
-3 6 -11 -12 14 -29 0
11 -16 19 -21 25 29 0
4 -9 -12 -17 -20 -28 0
-1 10 14 -17 -19 -20 0
-10 -13 17 18 19 -24 0
5 -8 -10 13 15 -26 0
-3 6 7 8 11 29 0
-3 -9 14 -15 18 21 0
2 11 -14 -18 20 -24 0
5 9 15 -18 20 23 0
1 -3 10 14 -19 -22 0
6 14 16 -17 20 -23 0
1 -6 -7 -9 23 -27 0
3 6 -10 12 -19 -24 0
-2 -3 -9 11 -26 30 0
9 -13 19 -20 -21 24 0
-6 -9 12 16 19 27 0
2 -4 -8 10 -21 -25 0
3 -9 15 -18 -19 30 0
-2 -9 15 -16 17 30 0
5 -10 15 -26 27 30 0
-7 12 14 17 -25 29 0
11 12 -13 -28 29 30 0
-2 -9 13 17 -20 -27 0
-3 -7 -8 -11 13 17 0
-1 4 7 19 22 -30 0
-3 -5 17 21 -22 -24 0
-1 11 21 -24 -26 28 0
-6 10 11 17 -22 27 0
8 11 13 -18 -19 23 0
-5 8 -9 14 15 25 0
-2 -9 -11 13 21 -23 0
2 7 -14 -15 21 -28 0
-8 10 12 13 17 25 0
-4 -9 12 26 -27 -30 0
5 18 19 27 28 30 0
-12 -15 -17 20 -25 -29 0
13 -18 19 -24 25 -27 0
-1 -7 -17 18 -19 25 0
-5 -11 20 26 -27 30 0
1 9 -21 -27 29 -30 0
10 -12 -18 -20 21 -26 0
-2 -9 20 21 -27 -28 0
5 15 17 -21 25 30 0
-3 -8 -18 -20 22 23 0
8 9 20 25 28 -30 0
3 -18 19 20 21 28 0
-10 12 -13 -17 22 -25 0
-10 -11 -14 -15 -21 -29 0
-3 18 -21 -24 25 -26 0
1 2 -3 6 14 30 0
-3 5 17 -24 26 28 0
4 6 -8 14 22 25 0
-2 3 -20 -22 26 30 0
-14 -20 23 24 29 -30 0
-11 18 20 -23 -24 30 0
-4 -16 -19 24 25 27 0
-4 6 12 -16 -20 -25 0
-4 -5 8 -15 -17 -30 0
2 -3 -9 -12 29 30 0
3 -4 -8 -11 -19 -25 0
6 8 -9 -14 18 30 0
2 4 -15 23 28 -29 0
1 8 -19 -21 23 -25 0
3 5 -6 10 -11 -20 0
-1 2 6 -7 -10 -29 0
4 -6 -7 -8 16 20 0
-11 13 15 24 27 -30 0
-5 9 12 15 -21 30 0
-6 16 -18 19 27 30 0
